File : Instances/p57
Use 144 s

27215

1 0 1 1 1 0 1 1 1 0 0 0 0 0 0 0 1 1 0 1 1 0 1 1 1 1 0 0 1 0 
7 19 2 22 2 6 16 28 22 17 4 28 3 3 28 7 3 20 22 0 22 16 2 24 23 7 22 17 4 2 19 19 4 16 22 6 20 8 24 16 7 8 6 4 8 19 3 16 19 17 24 16 24 16 8 6 25 8 22 7 4 0 7 8 3 25 0 17 28 25 7 6 19 8 23 23 20 23 8 16 23 0 8 25 4 20 6 2 22 7 28 6 25 25 0 3 28 19 0 28 17 16 25 7 4 0 4 24 22 3 19 4 22 6 6 8 28 7 17 8 20 25 17 19 4 16 2 28 19 17 28 24 25 20 23 8 3 3 28 17 6 22 28 25 25 2 24 16 22 25 24 17 23 0 8 28 2 16 3 3 3 0 23 24 23 0 23 4 3 2 23 20 19 20 4 2 0 20 4 20 2 16 24 19 25 8 28 23 0 2 2 2 6 6 7 6 7 2 20 19 
